140
1000000
116797
158582
23830
607381
343501
49503
9420
322896
679645
631091
539784
392619
61622
636616
166093
92949
416277
471299
294404
170558
87367
173675
91248
76796
149000
307287
238280
474026
351465
382413
67926
537509
748935
576239
459704
219205
408217
384460
460106
60058
615540
531505
125216
449928
16629
21185
479266
475408
303909
693814
386769
278680
67782
457780
602393
261913
507087
509028
110110
682229
705653
586404
360035
545850
431051
198922
14655
420520
94572
97300
549627
412905
70705
66165
383445
701479
468905
336394
102851
730966
269034
40327
668028
540296
31183
299621
579480
227795
74094
270971
176423
576
121786
415582
291051
294820
332433
179431
92413
525974
112502
591783
102019
451204
641927
428286
157359
158392
450373
306186
63044
247963
48419
249510
36992
638289
179451
226421
287937
162027
361711
221725
529518
137083
225618
476821
660673
447460
252692
448270
220471
95338
677104
421741
32418
156044
115513
51972
710155
492913
